33D32945 STP File, STP Format Version 1.0
Section Comment
Name    "hc6u"
Creator "I. Rosseti, M. Poggi de Aragao, C.C. Ribeiro, E. Uchoa, and R.F.Werneck"
Remark  "Hypercube instance"
End

SECTION Graph
Nodes 64
Edges 192
E 1 33 1
E 1 17 1
E 1 9 1
E 1 5 1
E 1 3 1
E 1 2 1
E 2 34 1
E 2 18 1
E 2 10 1
E 2 6 1
E 2 4 1
E 3 35 1
E 3 19 1
E 3 11 1
E 3 7 1
E 3 4 1
E 4 36 1
E 4 20 1
E 4 12 1
E 4 8 1
E 5 37 1
E 5 21 1
E 5 13 1
E 5 7 1
E 5 6 1
E 6 38 1
E 6 22 1
E 6 14 1
E 6 8 1
E 7 39 1
E 7 23 1
E 7 15 1
E 7 8 1
E 8 40 1
E 8 24 1
E 8 16 1
E 9 41 1
E 9 25 1
E 9 13 1
E 9 11 1
E 9 10 1
E 10 42 1
E 10 26 1
E 10 14 1
E 10 12 1
E 11 43 1
E 11 27 1
E 11 15 1
E 11 12 1
E 12 44 1
E 12 28 1
E 12 16 1
E 13 45 1
E 13 29 1
E 13 15 1
E 13 14 1
E 14 46 1
E 14 30 1
E 14 16 1
E 15 47 1
E 15 31 1
E 15 16 1
E 16 48 1
E 16 32 1
E 17 49 1
E 17 25 1
E 17 21 1
E 17 19 1
E 17 18 1
E 18 50 1
E 18 26 1
E 18 22 1
E 18 20 1
E 19 51 1
E 19 27 1
E 19 23 1
E 19 20 1
E 20 52 1
E 20 28 1
E 20 24 1
E 21 53 1
E 21 29 1
E 21 23 1
E 21 22 1
E 22 54 1
E 22 30 1
E 22 24 1
E 23 55 1
E 23 31 1
E 23 24 1
E 24 56 1
E 24 32 1
E 25 57 1
E 25 29 1
E 25 27 1
E 25 26 1
E 26 58 1
E 26 30 1
E 26 28 1
E 27 59 1
E 27 31 1
E 27 28 1
E 28 60 1
E 28 32 1
E 29 61 1
E 29 31 1
E 29 30 1
E 30 62 1
E 30 32 1
E 31 63 1
E 31 32 1
E 32 64 1
E 33 49 1
E 33 41 1
E 33 37 1
E 33 35 1
E 33 34 1
E 34 50 1
E 34 42 1
E 34 38 1
E 34 36 1
E 35 51 1
E 35 43 1
E 35 39 1
E 35 36 1
E 36 52 1
E 36 44 1
E 36 40 1
E 37 53 1
E 37 45 1
E 37 39 1
E 37 38 1
E 38 54 1
E 38 46 1
E 38 40 1
E 39 55 1
E 39 47 1
E 39 40 1
E 40 56 1
E 40 48 1
E 41 57 1
E 41 45 1
E 41 43 1
E 41 42 1
E 42 58 1
E 42 46 1
E 42 44 1
E 43 59 1
E 43 47 1
E 43 44 1
E 44 60 1
E 44 48 1
E 45 61 1
E 45 47 1
E 45 46 1
E 46 62 1
E 46 48 1
E 47 63 1
E 47 48 1
E 48 64 1
E 49 57 1
E 49 53 1
E 49 51 1
E 49 50 1
E 50 58 1
E 50 54 1
E 50 52 1
E 51 59 1
E 51 55 1
E 51 52 1
E 52 60 1
E 52 56 1
E 53 61 1
E 53 55 1
E 53 54 1
E 54 62 1
E 54 56 1
E 55 63 1
E 55 56 1
E 56 64 1
E 57 61 1
E 57 59 1
E 57 58 1
E 58 62 1
E 58 60 1
E 59 63 1
E 59 60 1
E 60 64 1
E 61 63 1
E 61 62 1
E 62 64 1
E 63 64 1
End

Section Terminals
Terminals 32
T 1
T 4
T 6
T 7
T 10
T 11
T 13
T 16
T 18
T 19
T 21
T 24
T 25
T 28
T 30
T 31
T 34
T 35
T 37
T 40
T 41
T 44
T 46
T 47
T 49
T 52
T 54
T 55
T 58
T 59
T 61
T 64
End

EOF
